(define-fun randomness-mapping-GET
    ( 
        (sample-ctr-old-Gks0 Int)
        (sample-ctr-old-Gks0Map Int)
        (sample-id-Gks0 Int)
        (sample-id-Gks0Map Int)
        (sample-ctr-Gks0 Int)
        (sample-ctr-Gks0Map Int)
    )
    Bool
    (randomness-mapping 
        sample-ctr-old-Gks0 
        sample-ctr-old-Gks0Map
        sample-id-Gks0
        sample-id-Gks0Map
        sample-ctr-Gks0
        sample-ctr-Gks0Map
    )
)